p tw 338 21970 1 
0 2 
0 3 
0 4 
0 5 
0 6 
0 7 
0 8 
0 9 
0 10 
0 11 
0 12 
0 13 
0 14 
0 15 
0 16 
0 17 
0 18 
0 19 
0 20 
0 21 
0 22 
0 23 
0 24 
0 25 
0 26 
0 27 
0 28 
0 29 
0 30 
0 31 
0 32 
0 33 
0 34 
0 35 
0 36 
0 37 
0 38 
0 39 
0 40 
0 41 
0 42 
0 43 
0 44 
0 45 
0 46 
0 47 
0 48 
0 49 
0 50 
0 51 
0 52 
0 53 
0 54 
0 55 
0 56 
0 57 
0 58 
0 59 
0 60 
0 61 
0 62 
0 63 
0 64 
0 65 
0 66 
0 67 
0 68 
0 69 
0 70 
0 71 
0 72 
0 73 
0 74 
0 75 
0 76 
0 77 
0 78 
0 79 
0 80 
0 81 
0 82 
0 83 
0 84 
0 85 
0 86 
0 87 
0 88 
0 89 
0 90 
0 91 
0 92 
0 93 
0 94 
0 95 
0 96 
0 97 
0 98 
0 99 
0 100 
0 101 
0 102 
0 103 
0 104 
0 105 
0 106 
0 107 
0 108 
0 109 
0 110 
0 111 
0 112 
0 113 
0 114 
0 115 
0 116 
0 117 
0 118 
0 119 
0 120 
0 121 
0 122 
0 123 
0 124 
0 125 
0 126 
0 127 
0 128 
0 129 
0 130 
0 131 
0 132 
0 133 
0 134 
0 135 
0 136 
0 137 
0 138 
0 139 
0 140 
0 141 
0 142 
0 143 
0 144 
0 145 
0 146 
0 147 
0 148 
0 149 
0 150 
0 151 
0 152 
0 153 
0 154 
0 155 
0 156 
0 157 
0 158 
0 159 
0 160 
0 161 
0 162 
0 163 
0 164 
0 165 
0 166 
0 167 
0 168 
0 169 
1 170 
1 171 
1 172 
1 173 
1 174 
1 175 
1 176 
1 177 
1 178 
1 179 
1 180 
1 181 
1 182 
1 183 
1 184 
1 185 
1 186 
1 187 
1 188 
1 189 
1 190 
1 191 
1 192 
1 193 
1 194 
1 195 
1 196 
1 197 
1 198 
1 199 
1 200 
1 201 
1 202 
1 203 
1 204 
1 205 
1 206 
1 207 
1 208 
1 209 
1 210 
1 211 
1 212 
1 213 
1 214 
1 215 
1 216 
1 217 
1 218 
1 219 
1 220 
1 221 
1 222 
1 223 
1 224 
1 225 
1 226 
1 227 
1 228 
1 229 
1 230 
1 231 
1 232 
1 233 
1 234 
1 235 
1 236 
1 237 
1 238 
1 239 
1 240 
1 241 
1 242 
1 243 
1 244 
1 245 
1 246 
1 247 
1 248 
1 249 
1 250 
1 251 
1 252 
1 253 
1 254 
1 255 
1 256 
1 257 
1 258 
1 259 
1 260 
1 261 
1 262 
1 263 
1 264 
1 265 
1 266 
1 267 
1 268 
1 269 
1 270 
1 271 
1 272 
1 273 
1 274 
1 275 
1 276 
1 277 
1 278 
1 279 
1 280 
1 281 
1 282 
1 283 
1 284 
1 285 
1 286 
1 287 
1 288 
1 289 
1 290 
1 291 
1 292 
1 293 
1 294 
1 295 
1 296 
1 297 
1 298 
1 299 
1 300 
1 301 
1 302 
1 303 
1 304 
1 305 
1 306 
1 307 
1 308 
1 309 
1 310 
1 311 
1 312 
1 313 
1 314 
1 315 
1 316 
1 317 
1 318 
1 319 
1 320 
1 321 
1 322 
1 323 
1 324 
1 325 
1 326 
1 327 
1 328 
1 329 
1 330 
1 331 
1 332 
1 333 
1 334 
1 335 
1 336 
1 337 
1 338 
1 176 
1 185 
1 204 
1 206 
1 217 
1 223 
1 226 
1 245 
1 272 
1 302 
1 317 
1 326 
1 330 
2 204 
2 206 
2 212 
2 223 
2 225 
2 251 
2 272 
2 287 
2 293 
2 294 
2 315 
2 317 
2 330 
3 179 
3 182 
3 191 
3 197 
3 215 
3 224 
3 230 
3 238 
3 249 
3 262 
3 268 
3 301 
3 327 
4 176 
4 185 
4 217 
4 223 
4 229 
4 233 
4 245 
4 285 
4 294 
4 310 
4 315 
4 326 
4 338 
5 172 
5 198 
5 201 
5 232 
5 235 
5 241 
5 255 
5 266 
5 267 
5 297 
5 308 
5 323 
5 336 
6 189 
6 207 
6 209 
6 237 
6 257 
6 273 
6 275 
6 281 
6 291 
6 298 
6 309 
6 311 
6 324 
7 179 
7 181 
7 194 
7 208 
7 230 
7 249 
7 253 
7 268 
7 286 
7 301 
7 303 
7 321 
7 335 
8 186 
8 187 
8 199 
8 210 
8 216 
8 219 
8 247 
8 248 
8 263 
8 265 
8 276 
8 318 
8 328 
9 180 
9 192 
9 196 
9 231 
9 240 
9 269 
9 282 
9 283 
9 289 
9 295 
9 305 
9 314 
9 337 
10 189 
10 202 
10 237 
10 257 
10 273 
10 277 
10 281 
10 290 
10 298 
10 304 
10 309 
10 311 
10 324 
11 170 
11 180 
11 228 
11 231 
11 259 
11 269 
11 274 
11 282 
11 283 
11 295 
11 300 
11 312 
11 314 
12 173 
12 205 
12 214 
12 218 
12 236 
12 242 
12 252 
12 279 
12 280 
12 313 
12 319 
12 320 
12 329 
13 179 
13 181 
13 182 
13 194 
13 197 
13 208 
13 230 
13 238 
13 249 
13 253 
13 258 
13 268 
13 286 
14 175 
14 186 
14 187 
14 199 
14 210 
14 219 
14 246 
14 260 
14 261 
14 265 
14 292 
14 318 
14 328 
15 172 
15 173 
15 214 
15 232 
15 235 
15 241 
15 242 
15 252 
15 267 
15 297 
15 319 
15 323 
15 336 
16 174 
16 175 
16 178 
16 187 
16 193 
16 199 
16 216 
16 260 
16 261 
16 270 
16 288 
16 292 
16 316 
17 177 
17 217 
17 225 
17 233 
17 251 
17 272 
17 287 
17 293 
17 294 
17 315 
17 317 
17 330 
17 338 
18 201 
18 205 
18 218 
18 235 
18 252 
18 255 
18 266 
18 267 
18 280 
18 308 
18 313 
18 320 
18 329 
19 171 
19 195 
19 200 
19 203 
19 213 
19 220 
19 234 
19 239 
19 243 
19 250 
19 256 
19 278 
19 306 
20 201 
20 205 
20 235 
20 236 
20 241 
20 252 
20 255 
20 280 
20 297 
20 308 
20 319 
20 329 
20 336 
21 209 
21 227 
21 237 
21 254 
21 257 
21 271 
21 273 
21 275 
21 277 
21 291 
21 298 
21 299 
21 311 
22 172 
22 173 
22 198 
22 214 
22 232 
22 236 
22 241 
22 242 
22 279 
22 297 
22 319 
22 323 
22 336 
23 177 
23 204 
23 206 
23 217 
23 225 
23 245 
23 272 
23 287 
23 302 
23 310 
23 315 
23 317 
23 326 
24 172 
24 198 
24 218 
24 235 
24 242 
24 255 
24 267 
24 280 
24 308 
24 313 
24 319 
24 323 
24 336 
25 204 
25 206 
25 212 
25 223 
25 225 
25 251 
25 272 
25 287 
25 294 
25 310 
25 315 
25 317 
25 326 
26 180 
26 196 
26 221 
26 228 
26 269 
26 283 
26 289 
26 296 
26 300 
26 305 
26 312 
26 322 
26 325 
27 180 
27 188 
27 192 
27 196 
27 221 
27 228 
27 240 
27 259 
27 282 
27 289 
27 307 
27 322 
27 325 
28 176 
28 177 
28 185 
28 204 
28 206 
28 212 
28 245 
28 285 
28 293 
28 294 
28 315 
28 317 
28 330 
29 174 
29 175 
29 178 
29 187 
29 193 
29 199 
29 216 
29 247 
29 248 
29 260 
29 288 
29 316 
29 328 
30 170 
30 188 
30 190 
30 192 
30 228 
30 240 
30 289 
30 295 
30 296 
30 305 
30 307 
30 314 
30 325 
31 176 
31 177 
31 185 
31 217 
31 226 
31 229 
31 233 
31 245 
31 285 
31 302 
31 310 
31 326 
31 338 
32 170 
32 188 
32 190 
32 192 
32 221 
32 231 
32 282 
32 289 
32 305 
32 307 
32 312 
32 322 
32 337 
33 184 
33 202 
33 254 
33 257 
33 273 
33 277 
33 281 
33 290 
33 298 
33 304 
33 309 
33 324 
33 331 
34 179 
34 194 
34 197 
34 208 
34 224 
34 230 
34 238 
34 249 
34 268 
34 286 
34 301 
34 321 
34 327 
35 183 
35 189 
35 202 
35 207 
35 227 
35 275 
35 281 
35 291 
35 298 
35 309 
35 311 
35 331 
35 334 
36 193 
36 210 
36 211 
36 219 
36 222 
36 246 
36 247 
36 261 
36 263 
36 270 
36 276 
36 288 
36 318 
37 170 
37 180 
37 228 
37 231 
37 240 
37 259 
37 269 
37 283 
37 289 
37 295 
37 296 
37 300 
37 322 
38 177 
38 204 
38 206 
38 217 
38 225 
38 226 
38 251 
38 285 
38 287 
38 302 
38 310 
38 317 
38 326 
39 176 
39 177 
39 185 
39 204 
39 212 
39 226 
39 229 
39 233 
39 251 
39 285 
39 293 
39 302 
39 310 
40 208 
40 215 
40 224 
40 238 
40 244 
40 262 
40 264 
40 301 
40 303 
40 321 
40 327 
40 332 
40 333 
41 179 
41 181 
41 182 
41 191 
41 194 
41 197 
41 230 
41 249 
41 253 
41 258 
41 268 
41 286 
41 335 
42 171 
42 195 
42 200 
42 203 
42 213 
42 220 
42 234 
42 239 
42 243 
42 250 
42 256 
42 278 
42 306 
43 184 
43 189 
43 202 
43 227 
43 237 
43 271 
43 273 
43 277 
43 281 
43 284 
43 290 
43 304 
43 334 
44 171 
44 195 
44 200 
44 203 
44 213 
44 220 
44 234 
44 239 
44 243 
44 250 
44 256 
44 278 
44 306 
45 174 
45 175 
45 186 
45 193 
45 210 
45 211 
45 216 
45 219 
45 222 
45 248 
45 276 
45 292 
45 328 
46 184 
46 209 
46 237 
46 254 
46 257 
46 271 
46 273 
46 277 
46 284 
46 290 
46 299 
46 304 
46 324 
47 170 
47 180 
47 188 
47 192 
47 221 
47 259 
47 274 
47 282 
47 307 
47 312 
47 314 
47 325 
47 337 
48 188 
48 190 
48 192 
48 196 
48 221 
48 228 
48 240 
48 274 
48 283 
48 296 
48 305 
48 314 
48 325 
49 172 
49 173 
49 198 
49 201 
49 218 
49 267 
49 279 
49 280 
49 297 
49 308 
49 319 
49 323 
49 336 
50 174 
50 175 
50 178 
50 187 
50 193 
50 199 
50 210 
50 216 
50 248 
50 260 
50 270 
50 288 
50 292 
51 183 
51 189 
51 207 
51 209 
51 227 
51 237 
51 271 
51 275 
51 284 
51 291 
51 299 
51 311 
51 334 
52 172 
52 198 
52 214 
52 232 
52 235 
52 236 
52 241 
52 242 
52 255 
52 266 
52 297 
52 329 
52 336 
53 179 
53 181 
53 182 
53 208 
53 224 
53 238 
53 249 
53 262 
53 264 
53 286 
53 301 
53 303 
53 333 
54 185 
54 204 
54 206 
54 212 
54 223 
54 226 
54 229 
54 251 
54 285 
54 287 
54 302 
54 326 
54 330 
55 183 
55 184 
55 189 
55 202 
55 207 
55 281 
55 284 
55 290 
55 304 
55 309 
55 324 
55 331 
55 334 
56 170 
56 180 
56 231 
56 259 
56 269 
56 282 
56 289 
56 295 
56 300 
56 307 
56 312 
56 322 
56 337 
57 194 
57 208 
57 224 
57 249 
57 268 
57 286 
57 301 
57 303 
57 321 
57 327 
57 332 
57 333 
57 335 
58 175 
58 178 
58 193 
58 199 
58 210 
58 211 
58 216 
58 247 
58 261 
58 270 
58 276 
58 288 
58 318 
59 171 
59 195 
59 200 
59 203 
59 213 
59 220 
59 234 
59 239 
59 243 
59 250 
59 256 
59 278 
59 306 
60 170 
60 188 
60 190 
60 192 
60 231 
60 240 
60 282 
60 289 
60 295 
60 305 
60 307 
60 322 
60 337 
61 174 
61 175 
61 186 
61 199 
61 211 
61 216 
61 219 
61 247 
61 248 
61 260 
61 265 
61 270 
61 316 
62 170 
62 180 
62 188 
62 192 
62 221 
62 231 
62 240 
62 289 
62 296 
62 305 
62 307 
62 322 
62 337 
63 182 
63 191 
63 197 
63 215 
63 224 
63 238 
63 244 
63 258 
63 262 
63 264 
63 327 
63 332 
63 333 
64 183 
64 184 
64 207 
64 209 
64 227 
64 254 
64 271 
64 275 
64 284 
64 291 
64 299 
64 331 
64 334 
65 183 
65 202 
65 227 
65 254 
65 257 
65 271 
65 277 
65 284 
65 290 
65 291 
65 299 
65 311 
65 331 
66 179 
66 181 
66 194 
66 208 
66 215 
66 224 
66 230 
66 244 
66 258 
66 268 
66 303 
66 321 
66 335 
67 170 
67 190 
67 231 
67 269 
67 274 
67 283 
67 295 
67 296 
67 300 
67 305 
67 312 
67 314 
67 337 
68 177 
68 204 
68 206 
68 212 
68 225 
68 226 
68 251 
68 272 
68 287 
68 293 
68 302 
68 317 
68 330 
69 174 
69 175 
69 186 
69 187 
69 193 
69 199 
69 219 
69 246 
69 260 
69 261 
69 292 
69 316 
69 328 
70 171 
70 195 
70 200 
70 203 
70 213 
70 220 
70 234 
70 239 
70 243 
70 250 
70 256 
70 278 
70 306 
71 174 
71 175 
71 178 
71 186 
71 187 
71 210 
71 222 
71 246 
71 248 
71 260 
71 265 
71 270 
71 292 
72 193 
72 199 
72 211 
72 216 
72 219 
72 247 
72 261 
72 263 
72 276 
72 288 
72 316 
72 318 
72 328 
73 176 
73 185 
73 212 
73 223 
73 229 
73 233 
73 245 
73 272 
73 293 
73 294 
73 315 
73 330 
73 338 
74 181 
74 194 
74 208 
74 244 
74 253 
74 258 
74 264 
74 286 
74 303 
74 321 
74 332 
74 333 
74 335 
75 176 
75 177 
75 185 
75 204 
75 217 
75 226 
75 229 
75 233 
75 245 
75 272 
75 293 
75 302 
75 310 
76 176 
76 177 
76 217 
76 225 
76 233 
76 245 
76 272 
76 293 
76 294 
76 310 
76 315 
76 317 
76 338 
77 171 
77 195 
77 200 
77 203 
77 213 
77 220 
77 234 
77 239 
77 243 
77 250 
77 256 
77 278 
77 306 
78 209 
78 254 
78 257 
78 271 
78 273 
78 275 
78 277 
78 298 
78 299 
78 304 
78 311 
78 324 
78 331 
79 174 
79 186 
79 187 
79 219 
79 222 
79 246 
79 248 
79 260 
79 263 
79 265 
79 292 
79 316 
79 328 
80 171 
80 195 
80 200 
80 203 
80 213 
80 220 
80 234 
80 239 
80 243 
80 250 
80 256 
80 278 
80 306 
81 202 
81 207 
81 237 
81 254 
81 273 
81 275 
81 284 
81 299 
81 304 
81 309 
81 311 
81 324 
81 334 
82 172 
82 173 
82 201 
82 214 
82 232 
82 236 
82 241 
82 252 
82 279 
82 297 
82 319 
82 323 
82 336 
83 173 
83 198 
83 205 
83 214 
83 236 
83 241 
83 242 
83 266 
83 279 
83 280 
83 297 
83 323 
83 336 
84 179 
84 181 
84 191 
84 215 
84 224 
84 249 
84 262 
84 264 
84 301 
84 303 
84 321 
84 333 
84 335 
85 173 
85 201 
85 205 
85 218 
85 252 
85 267 
85 279 
85 280 
85 308 
85 313 
85 319 
85 320 
85 323 
86 183 
86 207 
86 209 
86 227 
86 237 
86 254 
86 257 
86 271 
86 281 
86 284 
86 290 
86 304 
86 311 
87 173 
87 201 
87 205 
87 214 
87 241 
87 252 
87 266 
87 267 
87 279 
87 280 
87 297 
87 329 
87 336 
88 205 
88 214 
88 232 
88 235 
88 236 
88 241 
88 242 
88 252 
88 255 
88 266 
88 313 
88 320 
88 329 
89 178 
89 187 
89 193 
89 210 
89 222 
89 246 
89 261 
89 263 
89 276 
89 288 
89 292 
89 318 
89 328 
90 176 
90 177 
90 185 
90 217 
90 226 
90 229 
90 233 
90 245 
90 285 
90 293 
90 302 
90 330 
90 338 
91 173 
91 198 
91 201 
91 205 
91 218 
91 232 
91 235 
91 236 
91 266 
91 308 
91 313 
91 323 
91 336 
92 176 
92 204 
92 206 
92 212 
92 223 
92 225 
92 226 
92 229 
92 251 
92 285 
92 293 
92 294 
92 310 
93 204 
93 217 
93 223 
93 225 
93 226 
93 233 
93 245 
93 285 
93 287 
93 294 
93 317 
93 326 
93 330 
94 191 
94 215 
94 224 
94 244 
94 262 
94 264 
94 301 
94 303 
94 321 
94 327 
94 332 
94 333 
94 335 
95 174 
95 175 
95 178 
95 193 
95 211 
95 222 
95 246 
95 260 
95 261 
95 270 
95 288 
95 292 
95 316 
96 206 
96 212 
96 223 
96 225 
96 251 
96 285 
96 287 
96 294 
96 315 
96 317 
96 326 
96 330 
96 338 
97 187 
97 199 
97 216 
97 219 
97 261 
97 263 
97 265 
97 276 
97 288 
97 292 
97 316 
97 318 
97 328 
98 170 
98 180 
98 188 
98 221 
98 231 
98 240 
98 259 
98 274 
98 282 
98 283 
98 300 
98 322 
98 337 
99 188 
99 190 
99 192 
99 196 
99 221 
99 240 
99 289 
99 296 
99 305 
99 307 
99 322 
99 325 
99 337 
100 172 
100 214 
100 241 
100 242 
100 252 
100 255 
100 267 
100 279 
100 280 
100 297 
100 319 
100 320 
100 329 
101 184 
101 189 
101 202 
101 273 
101 275 
101 277 
101 291 
101 298 
101 299 
101 309 
101 324 
101 331 
101 334 
102 181 
102 182 
102 197 
102 208 
102 215 
102 244 
102 253 
102 258 
102 262 
102 268 
102 332 
102 333 
102 335 
103 190 
103 196 
103 228 
103 259 
103 269 
103 274 
103 282 
103 283 
103 295 
103 300 
103 312 
103 314 
103 325 
104 170 
104 180 
104 188 
104 228 
104 231 
104 289 
104 295 
104 296 
104 300 
104 305 
104 307 
104 312 
104 314 
105 174 
105 178 
105 193 
105 211 
105 216 
105 222 
105 247 
105 248 
105 263 
105 270 
105 276 
105 288 
105 316 
106 172 
106 198 
106 218 
106 232 
106 235 
106 236 
106 242 
106 255 
106 308 
106 313 
106 319 
106 320 
106 323 
107 178 
107 187 
107 199 
107 246 
107 247 
107 260 
107 261 
107 263 
107 265 
107 270 
107 288 
107 316 
107 318 
108 180 
108 196 
108 228 
108 240 
108 259 
108 269 
108 274 
108 283 
108 295 
108 296 
108 300 
108 314 
108 325 
109 170 
109 188 
109 190 
109 192 
109 231 
109 240 
109 259 
109 274 
109 282 
109 295 
109 307 
109 314 
109 337 
110 198 
110 205 
110 218 
110 235 
110 242 
110 255 
110 266 
110 267 
110 280 
110 308 
110 313 
110 320 
110 329 
111 191 
111 224 
111 238 
111 244 
111 258 
111 262 
111 264 
111 286 
111 303 
111 321 
111 327 
111 332 
111 333 
112 183 
112 184 
112 189 
112 202 
112 207 
112 227 
112 237 
112 281 
112 284 
112 290 
112 291 
112 309 
112 334 
113 183 
113 184 
113 189 
113 207 
113 209 
113 227 
113 237 
113 271 
113 284 
113 290 
113 299 
113 304 
113 334 
114 176 
114 185 
114 212 
114 223 
114 226 
114 229 
114 233 
114 251 
114 285 
114 293 
114 294 
114 330 
114 338 
115 178 
115 210 
115 211 
115 216 
115 222 
115 247 
115 248 
115 263 
115 265 
115 270 
115 276 
115 288 
115 318 
116 183 
116 184 
116 189 
116 209 
116 227 
116 257 
116 271 
116 277 
116 281 
116 290 
116 291 
116 298 
116 331 
117 191 
117 194 
117 230 
117 249 
117 253 
117 258 
117 268 
117 286 
117 303 
117 321 
117 327 
117 332 
117 335 
118 198 
118 201 
118 205 
118 218 
118 236 
118 255 
118 266 
118 279 
118 280 
118 308 
118 313 
118 320 
118 329 
119 171 
119 195 
119 200 
119 203 
119 213 
119 220 
119 234 
119 239 
119 243 
119 250 
119 256 
119 278 
119 306 
120 180 
120 196 
120 221 
120 228 
120 259 
120 269 
120 274 
120 283 
120 296 
120 300 
120 312 
120 314 
120 325 
121 170 
121 188 
121 190 
121 221 
121 228 
121 259 
121 274 
121 296 
121 300 
121 307 
121 312 
121 322 
121 325 
122 176 
122 185 
122 204 
122 206 
122 212 
122 223 
122 226 
122 229 
122 245 
122 285 
122 302 
122 310 
122 326 
123 179 
123 181 
123 182 
123 197 
123 208 
123 215 
123 224 
123 238 
123 244 
123 262 
123 264 
123 301 
123 333 
124 186 
124 211 
124 219 
124 222 
124 246 
124 247 
124 261 
124 263 
124 265 
124 276 
124 316 
124 318 
124 328 
125 202 
125 254 
125 257 
125 273 
125 275 
125 277 
125 281 
125 291 
125 298 
125 309 
125 311 
125 324 
125 331 
126 178 
126 186 
126 211 
126 216 
126 222 
126 248 
126 260 
126 263 
126 265 
126 270 
126 292 
126 316 
126 318 
127 182 
127 194 
127 197 
127 208 
127 230 
127 238 
127 244 
127 253 
127 258 
127 268 
127 286 
127 327 
127 332 
128 171 
128 195 
128 200 
128 203 
128 213 
128 220 
128 234 
128 239 
128 243 
128 250 
128 256 
128 278 
128 306 
129 179 
129 181 
129 182 
129 194 
129 197 
129 208 
129 215 
129 230 
129 249 
129 253 
129 268 
129 301 
129 335 
130 179 
130 182 
130 194 
130 208 
130 215 
130 238 
130 249 
130 253 
130 258 
130 264 
130 303 
130 327 
130 333 
131 181 
131 191 
131 197 
131 224 
131 230 
131 244 
131 262 
131 268 
131 286 
131 301 
131 321 
131 332 
131 335 
132 179 
132 181 
132 182 
132 191 
132 197 
132 215 
132 230 
132 238 
132 244 
132 253 
132 258 
132 262 
132 264 
133 172 
133 198 
133 201 
133 214 
133 218 
133 232 
133 235 
133 236 
133 255 
133 266 
133 297 
133 320 
133 329 
134 172 
134 201 
134 218 
134 232 
134 235 
134 252 
134 255 
134 267 
134 308 
134 313 
134 319 
134 320 
134 329 
135 183 
135 184 
135 202 
135 227 
135 254 
135 271 
135 277 
135 284 
135 290 
135 299 
135 304 
135 331 
135 334 
136 183 
136 184 
136 202 
136 227 
136 237 
136 254 
136 257 
136 275 
136 277 
136 284 
136 291 
136 299 
136 309 
137 171 
137 195 
137 200 
137 203 
137 213 
137 220 
137 234 
137 239 
137 243 
137 250 
137 256 
137 278 
137 306 
138 171 
138 195 
138 200 
138 203 
138 213 
138 220 
138 234 
138 239 
138 243 
138 250 
138 256 
138 278 
138 306 
139 179 
139 191 
139 194 
139 224 
139 230 
139 238 
139 249 
139 264 
139 286 
139 301 
139 303 
139 321 
139 327 
140 217 
140 223 
140 225 
140 226 
140 229 
140 233 
140 251 
140 272 
140 287 
140 302 
140 310 
140 326 
140 338 
141 183 
141 184 
141 207 
141 209 
141 227 
141 237 
141 254 
141 275 
141 284 
141 291 
141 299 
141 309 
141 334 
142 182 
142 191 
142 197 
142 238 
142 249 
142 253 
142 262 
142 264 
142 286 
142 301 
142 327 
142 332 
142 333 
143 174 
143 175 
143 178 
143 186 
143 193 
143 210 
143 211 
143 222 
143 246 
143 247 
143 248 
143 260 
143 270 
144 173 
144 205 
144 241 
144 242 
144 252 
144 267 
144 279 
144 280 
144 308 
144 313 
144 319 
144 323 
144 336 
145 184 
145 189 
145 207 
145 209 
145 237 
145 273 
145 275 
145 281 
145 298 
145 304 
145 309 
145 324 
145 334 
146 188 
146 190 
146 192 
146 196 
146 221 
146 274 
146 282 
146 305 
146 307 
146 312 
146 314 
146 325 
146 337 
147 190 
147 192 
147 196 
147 228 
147 269 
147 289 
147 295 
147 296 
147 305 
147 307 
147 312 
147 314 
147 325 
148 177 
148 212 
148 225 
148 229 
148 233 
148 251 
148 285 
148 287 
148 293 
148 294 
148 310 
148 315 
148 338 
149 171 
149 195 
149 200 
149 203 
149 213 
149 220 
149 234 
149 239 
149 243 
149 250 
149 256 
149 278 
149 306 
150 190 
150 196 
150 228 
150 231 
150 240 
150 269 
150 283 
150 289 
150 295 
150 296 
150 300 
150 305 
150 322 
151 183 
151 207 
151 209 
151 254 
151 257 
151 275 
151 291 
151 298 
151 299 
151 309 
151 311 
151 324 
151 331 
152 172 
152 173 
152 214 
152 232 
152 235 
152 236 
152 241 
152 242 
152 252 
152 297 
152 319 
152 320 
152 329 
153 198 
153 201 
153 205 
153 218 
153 255 
153 266 
153 267 
153 279 
153 280 
153 308 
153 313 
153 323 
153 336 
154 190 
154 192 
154 196 
154 221 
154 240 
154 259 
154 269 
154 274 
154 282 
154 283 
154 322 
154 325 
154 337 
155 177 
155 185 
155 217 
155 233 
155 245 
155 272 
155 287 
155 302 
155 315 
155 317 
155 326 
155 330 
155 338 
156 186 
156 210 
156 211 
156 219 
156 222 
156 246 
156 261 
156 263 
156 265 
156 270 
156 276 
156 292 
156 318 
157 186 
157 210 
157 211 
157 219 
157 222 
157 246 
157 247 
157 248 
157 263 
157 265 
157 276 
157 318 
157 328 
158 172 
158 173 
158 198 
158 214 
158 218 
158 232 
158 242 
158 266 
158 267 
158 279 
158 313 
158 320 
158 323 
159 189 
159 207 
159 209 
159 271 
159 273 
159 281 
159 290 
159 298 
159 304 
159 311 
159 324 
159 331 
159 334 
160 171 
160 195 
160 200 
160 203 
160 213 
160 220 
160 234 
160 239 
160 243 
160 250 
160 256 
160 278 
160 306 
161 176 
161 177 
161 185 
161 206 
161 212 
161 229 
161 251 
161 272 
161 293 
161 302 
161 310 
161 315 
161 338 
162 180 
162 196 
162 221 
162 231 
162 259 
162 269 
162 274 
162 282 
162 283 
162 300 
162 312 
162 322 
162 337 
163 174 
163 175 
163 178 
163 186 
163 187 
163 199 
163 216 
163 248 
163 260 
163 265 
163 292 
163 316 
163 328 
164 189 
164 202 
164 257 
164 271 
164 273 
164 277 
164 281 
164 290 
164 298 
164 304 
164 311 
164 324 
164 331 
165 191 
165 194 
165 197 
165 215 
165 230 
165 244 
165 253 
165 258 
165 268 
165 321 
165 327 
165 332 
165 335 
166 206 
166 217 
166 223 
166 225 
166 245 
166 272 
166 287 
166 294 
166 315 
166 317 
166 326 
166 330 
166 338 
167 173 
167 201 
167 205 
167 214 
167 232 
167 236 
167 241 
167 252 
167 266 
167 279 
167 297 
167 320 
167 329 
168 181 
168 182 
168 191 
168 215 
168 244 
168 253 
168 258 
168 262 
168 264 
168 303 
168 332 
168 333 
168 335 
169 174 
169 175 
169 187 
169 193 
169 199 
169 210 
169 219 
169 246 
169 247 
169 261 
169 276 
169 288 
169 328 
